p wcnf 3000 300 1
1 1 0
1 2 0
1 3 0
1 4 0
1 5 0
1 6 0
1 7 0
1 8 0
1 9 0
1 10 0
1 11 0
1 12 0
1 13 0
1 14 0
1 15 0
1 1 1 1 1 2 2 2 2 2 2 2 2 2 2 0
1 2 2 2 2 2 2 2 2 2 2 2 2 2 2 0
1 2 2 2 2 3 3 3 3 3 3 3 3 3 3 0
1 3 3 3 3 3 3 3 3 3 3 3 3 3 3 0
1 3 3 3 3 3 3 3 3 3 3 3 3 3 3 0
1 3 3 3 3 4 4 4 4 4 4 4 4 4 4 0
1 4 4 4 4 4 4 4 4 4 5 5 5 5 5 0
1 5 5 5 5 5 5 5 5 5 5 5 5 5 5 0
1 5 5 5 5 5 6 6 6 6 6 6 6 6 6 0
1 6 6 6 6 6 6 6 6 6 6 6 6 6 6 0
1 7 7 7 7 7 7 7 7 7 7 7 7 7 7 0
1 7 7 7 7 7 7 7 7 7 7 7 7 7 8 0
1 8 8 8 8 8 8 8 8 8 8 8 8 8 8 0
1 8 8 8 8 8 8 8 8 8 8 8 8 8 8 0
1 9 9 9 9 9 9 9 9 9 9 9 9 9 9 0
1 9 9 9 9 9 9 9 9 9 9 9 9 9 9 0
1 10 10 10 10 10 10 10 10 10 10 10 10 10 10 0
1 10 10 10 10 10 10 10 10 10 10 10 10 10 10 0
1 10 10 10 10 10 10 10 11 11 11 11 11 11 11 0
1 11 11 11 11 11 11 11 11 11 11 11 11 11 11 0
1 11 11 11 12 12 12 12 12 12 12 12 12 12 12 0
1 12 12 12 12 12 12 12 12 12 12 12 12 13 13 0
1 13 13 13 13 13 13 13 13 13 13 13 13 13 13 0
1 13 13 13 13 13 14 14 14 14 14 14 14 14 14 0
1 14 14 14 14 14 14 14 14 14 14 14 14 14 14 0
1 14 14 14 15 15 15 15 15 15 15 15 15 15 15 0
1 15 15 15 15 15 15 15 15 15 15 15 15 15 15 0
1 15 15 15 15 15 15 16 16 16 16 16 16 16 16 0
1 16 16 16 16 16 16 16 16 16 16 16 16 16 16 0
1 17 17 17 17 17 17 17 17 17 17 17 17 17 17 0
1 17 17 17 17 17 17 17 17 17 17 17 17 17 17 0
1 17 17 17 17 17 17 18 18 18 18 18 18 18 18 0
1 18 18 18 18 18 18 18 18 18 18 18 18 18 18 0
1 18 18 18 18 18 18 18 18 19 19 19 19 19 19 0
1 19 19 19 19 19 19 19 19 19 19 19 19 19 19 0
1 19 19 19 19 19 19 19 19 19 19 19 19 19 19 0
1 20 20 20 20 20 20 20 20 20 20 20 20 20 20 0
1 20 20 20 20 20 20 20 20 20 20 20 20 20 20 0
1 20 20 20 20 20 20 20 21 21 21 21 21 21 21 0
1 21 21 21 21 21 21 21 21 21 21 21 21 21 21 0
1 21 21 21 21 21 21 21 21 22 22 22 22 22 22 0
1 22 22 22 22 22 22 22 22 22 22 22 22 22 22 0
1 22 22 22 23 23 23 23 23 23 23 23 23 23 23 0
1 23 23 23 23 23 23 23 23 23 23 23 23 23 23 0
1 23 23 23 23 23 24 24 24 24 24 24 24 24 24 0
1 24 24 24 24 24 24 24 24 24 24 24 24 24 24 0
1 24 25 25 25 25 25 25 25 25 25 25 25 25 25 0
1 25 25 25 25 25 25 25 25 25 25 25 25 25 25 0
1 26 26 26 26 26 26 26 26 26 26 26 26 26 26 0
1 26 26 26 26 26 26 26 26 26 26 26 26 26 26 0
1 26 26 26 26 27 27 27 27 27 27 27 27 27 27 0
1 27 27 27 27 27 27 27 27 27 27 27 27 27 27 0
1 27 27 27 27 27 27 27 27 27 27 27 28 28 28 0
1 28 28 28 28 28 28 28 28 28 28 28 28 28 28 0
1 28 28 28 28 28 28 28 28 28 28 28 28 28 28 0
1 28 28 28 29 29 29 29 29 29 29 29 29 29 29 0
1 29 29 29 29 29 29 29 29 29 29 29 29 29 29 0
1 30 30 30 30 30 30 30 30 30 30 30 30 30 30 0
1 30 30 30 30 30 30 30 30 30 30 30 30 30 30 0
1 31 31 31 31 31 31 31 31 31 31 31 31 31 31 0
1 31 31 31 31 31 31 31 31 32 32 32 32 32 32 0
1 32 32 32 32 32 32 32 32 32 32 32 32 32 32 0
1 32 32 32 32 32 33 33 33 33 33 33 33 33 33 0
1 33 33 33 33 33 33 33 33 33 33 33 33 33 33 0
1 33 33 33 33 33 33 33 33 33 34 34 34 34 34 0
1 34 34 34 34 34 34 34 34 34 34 34 34 34 34 0
1 34 34 34 34 34 34 34 35 35 35 35 35 35 35 0
1 35 35 35 35 35 35 35 35 35 35 35 35 35 35 0
1 35 35 35 35 35 35 35 35 35 36 36 36 36 36 0
1 36 36 36 36 36 36 36 36 36 36 36 36 36 36 0
1 36 36 36 36 36 36 36 36 37 37 37 37 37 37 0
1 37 37 37 37 37 37 37 37 37 37 37 37 37 37 0
1 37 37 38 38 38 38 38 38 38 38 38 38 38 38 0
1 38 38 38 38 38 38 38 38 39 39 39 39 39 39 0
1 39 39 39 39 39 39 39 39 39 39 39 39 39 39 0
1 39 39 39 39 39 39 39 39 40 40 40 40 40 40 0
1 40 40 40 40 40 40 40 40 40 40 40 40 40 40 0
1 40 40 40 40 41 41 41 41 41 41 41 41 41 41 0
1 41 41 41 41 41 41 41 41 41 41 41 41 41 41 0
1 41 41 42 42 42 42 42 42 42 42 42 42 42 42 0
1 42 42 42 42 42 42 42 42 42 42 42 42 42 42 0
1 42 42 42 42 43 43 43 43 43 43 43 43 43 43 0
1 43 43 43 43 43 43 43 43 43 43 43 43 43 43 0
1 43 43 43 43 43 43 43 43 43 43 44 44 44 44 0
1 44 44 44 44 44 44 44 44 44 44 44 44 44 44 0
1 44 44 44 44 44 45 45 45 45 45 45 45 45 45 0
1 45 45 45 45 45 45 45 45 45 45 45 45 45 45 0
1 45 46 46 46 46 46 46 46 46 46 46 46 46 46 0
1 46 46 46 46 46 47 47 47 47 47 47 47 47 47 0
1 47 47 47 47 47 47 47 47 47 47 47 47 47 47 0
1 47 47 47 47 47 48 48 48 48 48 48 48 48 48 0
1 48 48 48 48 48 48 48 48 48 48 48 48 48 48 0
1 48 48 48 48 49 49 49 49 49 49 49 49 49 49 0
1 49 49 49 49 49 49 49 49 49 49 49 49 49 49 0
1 50 50 50 50 50 50 50 50 50 50 50 50 50 50 0
1 50 50 50 50 50 50 50 50 50 50 50 50 50 50 0
1 50 50 50 50 51 51 51 51 51 51 51 51 51 51 0
1 51 51 51 51 51 51 51 51 51 51 51 51 51 51 0
1 51 51 51 52 52 52 52 52 52 52 52 52 52 52 0
1 52 52 52 52 52 52 52 52 52 52 52 52 52 52 0
1 52 52 52 53 53 53 53 53 53 53 53 53 53 53 0
1 53 53 53 53 53 53 53 53 53 53 53 53 53 53 0
1 53 53 53 53 53 53 53 54 54 54 54 54 54 54 0
1 54 54 54 54 54 54 54 54 54 54 54 54 54 54 0
1 54 54 55 55 55 55 55 55 55 55 55 55 55 55 0
1 55 55 55 55 55 55 55 55 55 55 55 55 55 55 0
1 55 55 55 56 56 56 56 56 56 56 56 56 56 56 0
1 56 56 56 56 56 56 56 56 56 56 56 56 56 56 0
1 56 56 56 56 56 56 56 57 57 57 57 57 57 57 0
1 57 57 57 57 57 57 57 57 57 57 57 57 57 57 0
1 57 57 57 57 57 57 57 57 57 58 58 58 58 58 0
1 58 58 58 58 58 58 58 58 58 58 58 58 58 58 0
1 58 58 58 58 58 58 58 59 59 59 59 59 59 59 0
1 59 59 59 59 59 59 59 59 59 59 59 59 59 59 0
1 59 59 59 59 59 60 60 60 60 60 60 60 60 60 0
1 60 60 60 60 60 60 60 60 60 60 60 60 60 60 0
1 61 61 61 61 61 61 61 61 61 61 61 61 61 61 0
1 61 61 61 61 61 61 61 61 61 61 61 61 61 62 0
1 62 62 62 62 62 62 62 62 62 62 62 62 62 62 0
1 62 62 62 62 62 62 62 62 62 62 62 62 62 62 0
1 62 62 62 62 62 62 62 62 63 63 63 63 63 63 0
1 63 63 63 63 63 63 63 63 63 63 63 63 63 63 0
1 63 63 63 63 63 63 63 63 64 64 64 64 64 64 0
1 64 64 64 64 64 64 64 64 64 64 64 64 64 64 0
1 64 64 64 64 64 64 64 64 64 64 64 64 64 65 0
1 65 65 65 65 65 65 65 65 65 65 65 65 65 65 0
1 65 65 65 65 65 65 65 65 65 65 65 65 65 65 0
1 65 65 66 66 66 66 66 66 66 66 66 66 66 66 0
1 66 66 66 66 66 66 66 66 66 66 66 66 66 66 0
1 66 66 66 66 66 66 66 66 66 66 67 67 67 67 0
1 67 67 67 67 67 67 67 67 67 67 67 67 67 67 0
1 67 67 67 67 67 68 68 68 68 68 68 68 68 68 0
1 68 68 68 68 68 68 68 68 68 68 68 68 68 68 0
1 68 68 68 68 68 68 69 69 69 69 69 69 69 69 0
1 69 69 69 69 69 69 69 69 69 69 69 69 69 69 0
1 69 69 69 70 70 70 70 70 70 70 70 70 70 70 0
1 70 70 70 70 70 70 70 70 70 70 70 71 71 71 0
1 71 71 71 71 71 71 71 71 71 71 71 71 71 71 0
1 71 71 71 71 72 72 72 72 72 72 72 72 72 72 0
1 72 72 72 72 72 72 72 72 72 72 72 72 72 72 0
1 72 72 72 72 72 72 72 72 72 72 73 73 73 73 0
1 73 73 73 73 73 73 73 73 73 73 73 73 73 73 0
1 73 73 73 73 73 73 73 73 73 73 73 73 73 74 0
1 74 74 74 74 74 74 74 74 74 74 74 74 74 74 0
1 74 74 74 74 74 74 74 74 74 74 74 74 74 74 0
1 74 74 74 74 74 74 74 74 74 75 75 75 75 75 0
1 75 75 75 75 75 75 75 75 75 75 75 75 75 75 0
1 75 75 75 75 75 75 75 75 75 75 75 75 75 75 0
1 75 75 75 75 76 76 76 76 76 76 76 76 76 76 0
1 76 76 76 76 76 76 76 76 76 76 76 76 76 76 0
1 76 76 76 76 76 76 76 76 77 77 77 77 77 77 0
1 77 77 77 77 77 77 77 77 77 77 77 77 77 77 0
1 77 77 77 77 77 77 77 77 77 77 77 77 77 77 0
1 78 78 78 78 78 78 78 78 78 78 78 78 78 78 0
1 78 78 78 78 78 78 78 78 78 78 78 78 78 78 0
1 78 78 78 78 78 79 79 79 79 79 79 79 79 79 0
1 79 79 79 79 79 79 79 79 79 79 79 79 79 79 0
1 79 79 80 80 80 80 80 80 80 80 80 80 80 80 0
1 80 80 80 80 80 80 80 80 80 80 80 80 80 80 0
1 80 80 81 81 81 81 81 81 81 81 81 81 81 81 0
1 81 81 81 81 81 81 81 81 81 81 81 81 81 81 0
1 81 81 81 81 81 81 81 81 82 82 82 82 82 82 0
1 82 82 82 82 82 82 82 82 82 82 82 82 82 82 0
1 82 82 82 82 82 83 83 83 83 83 83 83 83 83 0
1 83 83 83 83 83 83 83 83 83 83 83 83 83 83 0
1 83 83 83 83 83 83 83 83 83 83 83 83 83 83 0
1 83 83 84 84 84 84 84 84 84 84 84 84 84 84 0
1 84 84 84 84 84 84 84 84 84 84 84 84 84 84 0
1 84 84 84 84 84 84 85 85 85 85 85 85 85 85 0
1 85 85 85 85 85 85 85 85 85 85 85 85 85 86 0
1 86 86 86 86 86 86 86 86 86 86 86 86 86 86 0
1 86 86 86 86 86 86 86 86 86 86 87 87 87 87 0
1 87 87 87 87 87 87 87 87 87 87 87 87 87 87 0
1 87 87 88 88 88 88 88 88 88 88 88 88 88 88 0
1 88 88 88 88 88 88 88 88 88 88 88 88 88 88 0
1 88 88 88 88 88 88 88 89 89 89 89 89 89 89 0
1 89 89 89 89 89 89 89 89 89 89 89 89 89 89 0
1 89 89 89 89 89 89 89 89 90 90 90 90 90 90 0
1 90 90 90 90 90 90 90 90 90 90 90 90 90 90 0
1 90 90 90 90 90 91 91 91 91 91 91 91 91 91 0
1 91 91 91 91 91 91 91 91 91 91 91 91 91 91 0
1 91 92 92 92 92 92 92 92 92 92 92 92 92 92 0
1 92 92 92 92 92 92 92 92 92 92 92 92 92 92 0
1 92 92 92 92 92 92 93 93 93 93 93 93 93 93 0
1 93 93 93 93 93 93 93 93 93 93 93 93 93 93 0
1 93 93 93 93 93 93 93 94 94 94 94 94 94 94 0
1 94 94 94 94 94 94 94 94 94 94 94 94 94 94 0
1 94 95 95 95 95 95 95 95 95 95 95 95 95 95 0
1 95 95 95 95 95 95 95 95 95 95 95 95 95 95 0
1 95 95 95 95 95 96 96 96 96 96 96 96 96 96 0
1 96 96 96 96 96 96 96 96 96 96 96 96 96 96 0
1 96 96 97 97 97 97 97 97 97 97 97 97 97 97 0
1 97 97 97 97 97 97 97 97 97 97 97 97 97 97 0
1 97 97 98 98 98 98 98 98 98 98 98 98 98 98 0
1 98 98 98 98 98 98 98 98 98 98 98 98 98 98 0
1 98 98 98 98 98 98 98 98 98 98 99 99 99 99 0
1 99 99 99 99 99 99 99 99 99 99 99 99 99 99 0
1 99 99 99 99 100 100 100 100 100 100 100 100 100 100 0
1 100 100 100 100 100 100 100 100 100 100 100 100 100 100 0
1  0
1 39 44 108 167 182 198 199 201 215 220 228 235 239 242 0
1 248 251 257 265 276 282 312 321 323 398 406 494 495 565 0
1 574 578 595 606 626 670 672 690 708 713 740 742 745 792 0
1 814 879 890 906 927 935 943 961 996 1031 1044 1054 1055 1077 0
1 1125 1128 1151 1205 1212 1218 1258 1261 1288 1345 1351 1364 1373 1447 0
1 1481 1517 1518 1562 1577 1585 1595 1600 1629 1651 1693 1717 1718 1721 0
1 1765 1791 1792 1817 1823 1861 1864 1869 1884 1887 1904 1994 2007 2020 0
1 2066 2102 2117 2138 2154 2161 2162 2164 2184 2191 2195 2241 2260 2284 0
1 2333 2345 2354 2390 2414 2415 2446 2454 2509 2516 2556 2574 2579 2597 0
1 2619 2620 2642 2650 2675 2676 2684 2690 2710 2744 2793 2837 2886 2903 0
1 2925 0
1  0
1 27 32 51 54 63 130 140 143 155 161 162 197 206 254 0
1 376 417 431 469 490 513 521 522 531 547 549 555 557 560 0
1 615 625 631 635 645 658 664 674 676 689 728 769 813 848 0
1 881 882 894 939 951 994 1005 1006 1088 1089 1090 1093 1126 1186 0
1 1204 1238 1272 1285 1331 1346 1348 1373 1390 1394 1439 1456 1539 1556 0
1 1583 1584 1587 1626 1665 1666 1668 1676 1722 1729 1792 1797 1861 1878 0
1 1898 1899 1900 1901 1906 1937 1940 1944 1978 2012 2046 2048 2051 2101 0
1 2275 2301 2313 2379 2391 2399 2403 2417 2418 2423 2438 2452 2475 2479 0
1 2497 2499 2504 2515 2535 2537 2563 2597 2617 2626 2671 2680 2696 2720 0
1 2785 2804 2826 2846 2881 2892 2898 2924 2930 2954 2960 0
1  0
1 8 21 22 27 47 49 59 72 75 76 77 79 127 149 0
1 219 229 235 247 304 322 339 357 399 455 469 501 523 546 0
1 606 619 626 638 655 658 682 742 747 755 784 798 842 847 0
1 916 917 921 950 1020 1029 1040 1046 1057 1093 1102 1125 1147 1156 0
1 1211 1215 1216 1224 1228 1239 1252 1290 1337 1341 1343 1349 1372 1375 0
1 1448 1461 1530 1544 1578 1596 1646 1664 1667 1682 1732 1735 1740 1747 0
1 1771 1786 1822 1844 1866 1928 1932 1943 1962 1992 2058 2075 2097 2135 0
1 2154 2160 2177 2211 2218 2233 2269 2284 2293 2307 2348 2390 2392 2408 0
1 2417 2425 2461 2471 2474 2485 2565 2572 2600 2606 2622 2623 2648 2661 0
1 2713 2721 2730 2743 2751 2783 2787 2800 2824 2859 2877 2886 2937 2984 0
1  0
1  0
1 11 37 77 82 131 145 161 167 203 209 223 238 260 267 0
1 337 357 382 405 413 414 442 453 455 490 496 500 575 662 0
1 676 708 714 719 751 753 755 757 761 802 803 826 841 846 0
1 908 916 917 960 961 969 991 993 1024 1053 1101 1120 1126 1129 0
1 1184 1211 1212 1216 1235 1246 1266 1309 1330 1355 1401 1402 1405 1407 0
1 1471 1476 1488 1492 1526 1536 1574 1585 1621 1629 1643 1648 1649 1653 0
1 1660 1666 1682 1699 1700 1712 1733 1747 1771 1790 1795 1796 1808 1819 0
1 1856 1857 1874 1923 1928 1939 1967 1977 1991 1998 2025 2068 2069 2092 0
1 2163 2169 2172 2180 2206 2214 2217 2247 2305 2327 2335 2414 2418 2428 0
1 2449 2480 2489 2507 2511 2525 2626 2627 2652 2705 2729 2734 2737 2740 0
1 2793 2804 2807 2822 2838 2857 2866 2890 2939 2957 2977 2985 0
1  0
1 32 33 49 57 75 90 92 126 132 136 150 198 208 269 0
1 297 324 356 393 414 527 595 652 672 680 689 745 753 754 0
1 821 828 845 866 874 880 889 934 938 966 982 992 1027 1028 0
1 1048 1049 1067 1075 1082 1099 1110 1139 1182 1184 1204 1211 1218 1225 0
1 1230 1236 1237 1278 1310 1328 1337 1346 1356 1367 1391 1393 1398 1420 0
1 1489 1491 1517 1524 1526 1543 1577 1586 1614 1628 1640 1656 1711 1744 0
1 1791 1812 1815 1839 1854 1895 1899 1989 2045 2056 2058 2059 2084 2086 0
1 2216 2225 2236 2238 2268 2272 2282 2325 2349 2387 2396 2442 2451 2455 0
1 2493 2494 2507 2513 2521 2541 2549 2569 2593 2617 2619 2660 2687 2709 0
1 2809 2810 2832 2833 2847 2866 2882 2886 2925 2931 2936 2943 2958 2963 0
1 2992 0
1  0
1 51 100 115 116 129 171 172 241 269 273 316 342 344 361 0
1 372 427 442 445 462 464 498 499 511 525 526 558 576 621 0
1 633 650 700 722 746 759 772 775 804 875 885 910 920 950 0
1 955 986 1006 1031 1077 1079 1084 1088 1099 1135 1172 1187 1244 1279 0
1 1290 1301 1310 1313 1320 1330 1342 1354 1358 1359 1362 1373 1375 1400 0
1 1430 1448 1462 1485 1515 1571 1594 1615 1619 1644 1659 1680 1683 1737 0
1 1741 1785 1803 1818 1830 1842 1855 1864 1895 1897 1915 1924 1935 1937 0
1 1977 1987 1990 1992 2055 2086 2128 2137 2151 2162 2163 2192 2193 2199 0
1 2212 2213 2215 2216 2226 2230 2236 2247 2277 2314 2318 2319 2467 2470 0
1 2508 2522 2524 2619 2634 2686 2689 2691 2699 2734 2738 2739 2742 2750 0
1 2802 2803 2831 2848 2860 2884 2893 2903 2907 2914 2920 2929 2989 0
1  0
1 26 65 66 83 107 118 133 154 155 171 178 180 181 184 0
1 198 205 229 256 270 294 297 304 317 345 373 387 402 430 0
1 469 511 525 528 535 552 566 596 597 598 606 623 648 654 0
1 733 742 753 755 769 772 776 822 849 881 910 921 944 958 0
1 961 962 996 1046 1106 1127 1169 1176 1185 1209 1210 1214 1215 1223 0
1 1273 1278 1279 1280 1299 1317 1327 1351 1354 1362 1390 1410 1425 1445 0
1 1509 1517 1525 1540 1545 1616 1725 1754 1757 1782 1829 1860 1893 1914 0
1 1969 2037 2040 2043 2053 2055 2061 2067 2095 2096 2153 2162 2165 2186 0
1 2207 2208 2215 2221 2245 2277 2278 2335 2362 2377 2411 2449 2476 2490 0
1 2525 2535 2640 2645 2654 2691 2699 2712 2788 2794 2824 2829 2839 2850 0
1 2878 2908 2912 2930 2952 2962 2980 2981 0
1  0
1 31 35 97 106 110 154 171 177 184 230 239 267 291 317 0
1 320 346 352 354 375 385 410 414 428 436 521 527 534 551 0
1 567 597 650 663 683 691 693 750 795 811 838 843 865 889 0
1 931 948 965 998 1031 1054 1102 1141 1164 1179 1183 1206 1207 1277 0
1 1307 1332 1338 1399 1465 1490 1491 1495 1535 1571 1611 1617 1633 1646 0
1 1697 1734 1749 1764 1767 1771 1774 1800 1837 1838 1862 1871 1885 1909 0
1 1926 1928 1932 1944 1945 2023 2024 2057 2076 2080 2130 2138 2162 2168 0
1 2185 2202 2221 2245 2285 2292 2297 2304 2320 2329 2352 2395 2445 2458 0
1 2473 2480 2481 2496 2516 2526 2592 2601 2631 2715 2731 2733 2736 2738 0
1 2771 2801 2829 2841 2882 2914 2930 2987 0
1  0
1 56 100 101 121 125 141 210 214 216 223 226 243 259 264 0
1 323 374 384 439 444 452 463 510 564 567 568 580 609 630 0
1 680 701 751 776 785 853 860 869 870 893 897 906 933 952 0
1 970 1023 1034 1043 1052 1056 1077 1080 1116 1135 1143 1162 1170 1186 0
1 1215 1242 1251 1261 1275 1289 1328 1373 1393 1402 1412 1418 1432 1433 0
1 1453 1469 1526 1533 1536 1551 1554 1627 1633 1634 1644 1648 1698 1702 0
